SetGridsize(128, 32, 1)
SetCellsize(500e-9/128, 125e-9/32, 3e-9)

alpha = 1.0
Msat  = 800e3
Aex   = 13e-12
m     = uniform(1, .1, 0)

run(3e-9)  // relax
save(m)    // relaxed state

autosave(m, 200e-12)
tableautosave(10e-12)
alpha = 0.02
B_ext = vector(-24.6E-3, 4.3E-3, 0)
run(1e-9)