c := 10e-9
setcellsize(c, c, c)
setgridsize(512, 512, 1)

Msat  = 1e6
Aex   = 0
alpha = 0.1
AnisU = vector(0, 0, 1)
m     = uniform(0, 0, 1)
fixdt = 1e-12
Temp  = 100              // varied in batch
Ku1   = 1e4              // varied in batch
enabledemag = false
setsolver(2)

run(10e-9)               // reach equilibrium
autosave(m, .1e-6)       // will count number of flips in post-processing
run(1e-6)
